30
1 0 7
2 0 10
2 1 7
3 0 7
3 1 8
3 2 12
4 0 4
4 1 11
4 2 5
4 3 8
5 0 11
5 1 5
5 2 7
5 3 6
5 4 8
6 0 13
6 1 6
6 2 11
6 3 1
6 4 12
6 5 4
7 0 4
7 1 8
7 2 6
7 3 11
7 4 5
7 5 10
7 6 13
8 0 2
8 1 3
8 2 8
8 3 9
8 4 10
8 5 5
8 6 12
8 7 2
9 0 1
9 1 11
9 2 12
9 3 8
9 4 6
9 5 10
9 6 11
9 7 11
9 8 12
10 0 6
10 1 11
10 2 9
10 3 12
10 4 1
10 5 2
10 6 1
10 7 11
10 8 8
10 9 13
11 0 5
11 1 12
11 2 7
11 3 11
11 4 4
11 5 11
11 6 8
11 7 2
11 8 3
11 9 13
11 10 4
12 0 2
12 1 5
12 2 11
12 3 5
12 4 5
12 5 12
12 6 6
12 7 10
12 8 3
12 9 2
12 10 11
12 11 3
13 0 7
13 1 12
13 2 12
13 3 11
13 4 11
13 5 13
13 6 4
13 7 11
13 8 5
13 9 6
13 10 1
13 11 13
13 12 2
14 0 12
14 1 12
14 2 11
14 3 7
14 4 2
14 5 11
14 6 5
14 7 2
14 8 7
14 9 8
14 10 3
14 11 4
14 12 12
14 13 10
15 0 11
15 1 4
15 2 13
15 3 6
15 4 6
15 5 3
15 6 12
15 7 2
15 8 11
15 9 7
15 10 6
15 11 8
15 12 1
15 13 8
15 14 8
16 0 12
16 1 6
16 2 3
16 3 4
16 4 12
16 5 8
16 6 3
16 7 3
16 8 1
16 9 7
16 10 11
16 11 7
16 12 7
16 13 8
16 14 13
16 15 6
17 0 13
17 1 7
17 2 12
17 3 3
17 4 10
17 5 10
17 6 13
17 7 10
17 8 4
17 9 9
17 10 9
17 11 8
17 12 4
17 13 8
17 14 13
17 15 12
17 16 2
18 0 6
18 1 3
18 2 5
18 3 11
18 4 5
18 5 5
18 6 10
18 7 13
18 8 5
18 9 5
18 10 1
18 11 3
18 12 10
18 13 5
18 14 11
18 15 10
18 16 13
18 17 5
19 0 5
19 1 4
19 2 3
19 3 8
19 4 5
19 5 1
19 6 6
19 7 12
19 8 3
19 9 4
19 10 8
19 11 7
19 12 1
19 13 13
19 14 3
19 15 11
19 16 1
19 17 9
19 18 11
20 0 1
20 1 10
20 2 6
20 3 1
20 4 11
20 5 13
20 6 13
20 7 9
20 8 3
20 9 8
20 10 5
20 11 8
20 12 13
20 13 6
20 14 10
20 15 3
20 16 12
20 17 11
20 18 3
20 19 10
21 0 2
21 1 11
21 2 6
21 3 12
21 4 5
21 5 7
21 6 11
21 7 13
21 8 9
21 9 12
21 10 6
21 11 11
21 12 3
21 13 3
21 14 2
21 15 11
21 16 11
21 17 12
21 18 10
21 19 13
21 20 5
22 0 1
22 1 5
22 2 13
22 3 10
22 4 5
22 5 8
22 6 11
22 7 7
22 8 5
22 9 2
22 10 12
22 11 8
22 12 11
22 13 3
22 14 8
22 15 7
22 16 10
22 17 12
22 18 12
22 19 6
22 20 11
22 21 4
23 0 10
23 1 1
23 2 13
23 3 9
23 4 8
23 5 6
23 6 1
23 7 7
23 8 2
23 9 11
23 10 13
23 11 6
23 12 3
23 13 11
23 14 8
23 15 13
23 16 11
23 17 8
23 18 8
23 19 6
23 20 11
23 21 4
23 22 12
24 0 6
24 1 8
24 2 7
24 3 13
24 4 3
24 5 7
24 6 10
24 7 10
24 8 8
24 9 6
24 10 12
24 11 6
24 12 8
24 13 10
24 14 8
24 15 10
24 16 5
24 17 7
24 18 11
24 19 5
24 20 7
24 21 11
24 22 8
24 23 2
25 0 12
25 1 13
25 2 6
25 3 10
25 4 8
25 5 10
25 6 12
25 7 10
25 8 8
25 9 7
25 10 1
25 11 13
25 12 8
25 13 8
25 14 9
25 15 4
25 16 4
25 17 9
25 18 8
25 19 13
25 20 12
25 21 10
25 22 11
25 23 2
25 24 8
26 0 10
26 1 4
26 2 11
26 3 4
26 4 4
26 5 10
26 6 12
26 7 6
26 8 11
26 9 12
26 10 8
26 11 9
26 12 10
26 13 13
26 14 7
26 15 3
26 16 1
26 17 6
26 18 7
26 19 1
26 20 9
26 21 10
26 22 5
26 23 10
26 24 9
26 25 8
27 0 11
27 1 11
27 2 10
27 3 10
27 4 12
27 5 12
27 6 8
27 7 8
27 8 8
27 9 1
27 10 8
27 11 9
27 12 6
27 13 10
27 14 8
27 15 8
27 16 13
27 17 13
27 18 6
27 19 5
27 20 3
27 21 7
27 22 11
27 23 11
27 24 3
27 25 13
27 26 12
28 0 1
28 1 10
28 2 6
28 3 4
28 4 2
28 5 8
28 6 3
28 7 2
28 8 4
28 9 11
28 10 8
28 11 7
28 12 12
28 13 9
28 14 10
28 15 2
28 16 4
28 17 8
28 18 8
28 19 4
28 20 11
28 21 6
28 22 9
28 23 9
28 24 11
28 25 13
28 26 1
28 27 1
29 0 3
29 1 2
29 2 1
29 3 4
29 4 6
29 5 1
29 6 8
29 7 1
29 8 5
29 9 13
29 10 8
29 11 8
29 12 5
29 13 5
29 14 10
29 15 4
29 16 7
29 17 3
29 18 7
29 19 4
29 20 5
29 21 3
29 22 1
29 23 1
29 24 2
29 25 13
29 26 6
29 27 1
29 28 11
